33D32945 STP File, STP Format Version 1.0

SECTION Comments
Name "edge_n15_d3_s44"
Problem "Euclidean Steiner Tree Problem"
Remark "Generated with STPGenerator. 3 dimensions."
END

SECTION Graph
Nodes 15
END

SECTION Coordinates
DDD 0 0.7497371406 0.7497371406 0.7497371406
DDD 1 0.6546126439 0.6546126439 0.6546126439
DDD 2 0.7923043043 0.7923043043 0.7923043043
DDD 3 0.0619196091 0.0619196091 0.0619196091
DDD 4 0.0727788904 0.0727788904 0.0727788904
DDD 5 0.1874291036 0.1874291036 0.1874291036
DDD 6 0.8574096602 0.8574096602 0.8574096602
DDD 7 0.9521014504 0.9521014504 0.9521014504
DDD 8 0.4074837125 0.4074837125 0.4074837125
DDD 9 0.1925271313 0.1925271313 0.1925271313
DDD 10 0.3823489777 0.3823489777 0.3823489777
DDD 11 0.5831195775 0.5831195775 0.5831195775
DDD 12 0.1180090462 0.1180090462 0.1180090462
DDD 13 0.7377023845 0.7377023845 0.7377023845
DDD 14 0.5829005281 0.5829005281 0.5829005281
END
